data;
set WEIGHTS := x0 x1 x2 x3 x4 x5 x6 x7 x8 x9 x10 x11 x12 x13 x14 x15 x16 x17 x18 x19 x20 x21 x22 x23 x24 x25 x26 x27;
param:  cost :=
  x0  476
  x1  932
  x2  527
  x3  711
  x4  582
  x5  958
  x6  332
  x7  879
  x8  338
  x9  222
  x10  888
  x11  752
  x12  578
  x13  217
  x14  14
  x15  107
  x16  197
  x17  876
  x18  569
  x19  326
  x20  440
  x21  84
  x22  870
  x23  361
  x24  523
  x25  565
  x26  288
  x27  186;
param cap := 7000;